81
0 65 58 3 17 8 24 69 47 19 
36 46 7 59 57 34 39 52 18 56 
68 43 9 80 71 37 28 20 16 60 
4 25 62 13 45 73 42 55 74 63 
72 26 27 10 78 22 33 12 1 77 
44 6 35 64 49 23 15 79 21 53 
29 61 30 75 14 76 38 31 40 54 
11 51 70 41 50 32 66 5 67 2 
48 
